0 1 0 0 0 1 0 0 0 1 
0 50 35 32 19 38 42 37 48 24 
50 0 49 25 54 36 11 24 52 38 
35 49 0 23 51 13 33 16 52 37 
32 25 23 0 55 24 50 23 22 25 
19 54 51 55 0 25 58 43 34 40 
38 36 13 24 25 0 35 14 22 13 
42 11 33 50 58 35 0 13 37 46 
37 24 16 23 43 14 13 0 16 31 
48 52 52 22 34 22 37 16 0 17 
24 38 37 25 40 13 46 31 17 0 
2 4
1B 3B 6P 8B 7B 2P 4B 10P 9B 5B = 206